20
1 0 6
2 0 8
3 1 4
3 2 6
4 0 2
5 1 7
5 2 3
6 1 7
6 3 2
6 4 3
6 5 5
7 3 5
7 4 5
8 1 5
8 2 2
8 3 7
8 4 3
8 5 8
8 6 5
8 7 4
9 2 8
9 5 6
9 8 3
10 1 5
10 7 2
10 8 1
10 9 1
11 0 6
11 4 3
11 5 2
11 6 6
11 7 5
11 8 2
12 4 5
12 5 1
12 6 3
12 7 2
12 9 4
12 11 1
13 4 3
13 6 3
13 9 8
13 11 8
13 12 1
14 0 2
14 1 5
14 3 6
14 4 2
14 5 4
14 8 5
14 9 3
14 11 5
14 12 7
15 0 2
15 1 5
15 2 3
15 8 2
15 12 2
16 0 7
16 1 5
16 3 1
16 5 1
16 14 5
16 15 7
17 1 6
17 3 8
17 6 1
17 8 1
17 10 8
17 11 1
17 13 5
17 15 2
18 0 5
18 1 5
18 6 4
18 9 7
18 14 7
18 15 3
18 17 6
19 2 5
19 3 5
19 4 1
19 5 4
19 9 1
19 10 4
19 11 4
19 12 6
19 15 2
19 18 4
